50
200
21  
114  
79  
158  
104  
38  
59  
134  
62
48  
82  
120  
33  
94  
116  
65  
139  
55  
147  
49  
20  
108  
75  
153  
92  
144  
50  
39  
115  
61  
128  
137  
140  
106  
159  
66  
56  
26  
74  
114  
93  
159  
43 
123  
141  
33  
115  
55  
137  
60
